\ Model microgrid
\ LP format - for model browsing. Use MPS format to capture full model detail.
Minimize
  178 Pd[0] + 172 Pd[1] + 165 Pd[2] + 162 Pd[3] + 166 Pd[4] + 176 Pd[5]
   + 186 Pd[6] + 196 Pd[7] + 206 Pd[8] + 216 Pd[9] + 225 Pd[10]
   + 235 Pd[11] + 225 Pd[12] + 230 Pd[13] + 232 Pd[14] + 230 Pd[15]
   + 220 Pd[16] + 204 Pd[17] + 229 Pd[18] + 253 Pd[19] + 238 Pd[20]
   + 224 Pd[21] + 208 Pd[22] + 193 Pd[23] + 38 Pdr[0,0] + 38 Pdr[0,1]
   + 38 Pdr[0,2] + 38 Pdr[0,3] + 38 Pdr[0,4] + 38 Pdr[0,5] + 38 Pdr[0,6]
   + 38 Pdr[0,7] + 38 Pdr[0,8] + 38 Pdr[0,9] + 38 Pdr[0,10] + 38 Pdr[0,11]
   + 38 Pdr[0,12] + 38 Pdr[0,13] + 38 Pdr[0,14] + 38 Pdr[0,15]
   + 38 Pdr[0,16] + 38 Pdr[0,17] + 38 Pdr[0,18] + 38 Pdr[0,19]
   + 38 Pdr[0,20] + 38 Pdr[0,21] + 38 Pdr[0,22] + 38 Pdr[0,23]
   + 56 Pdr[1,0] + 56 Pdr[1,1] + 56 Pdr[1,2] + 56 Pdr[1,3] + 56 Pdr[1,4]
   + 56 Pdr[1,5] + 56 Pdr[1,6] + 56 Pdr[1,7] + 56 Pdr[1,8] + 56 Pdr[1,9]
   + 56 Pdr[1,10] + 56 Pdr[1,11] + 56 Pdr[1,12] + 56 Pdr[1,13]
   + 56 Pdr[1,14] + 56 Pdr[1,15] + 56 Pdr[1,16] + 56 Pdr[1,17]
   + 56 Pdr[1,18] + 56 Pdr[1,19] + 56 Pdr[1,20] + 56 Pdr[1,21]
   + 56 Pdr[1,22] + 56 Pdr[1,23] + 114 Pdr[2,0] + 114 Pdr[2,1]
   + 114 Pdr[2,2] + 114 Pdr[2,3] + 114 Pdr[2,4] + 114 Pdr[2,5]
   + 114 Pdr[2,6] + 114 Pdr[2,7] + 114 Pdr[2,8] + 114 Pdr[2,9]
   + 114 Pdr[2,10] + 114 Pdr[2,11] + 114 Pdr[2,12] + 114 Pdr[2,13]
   + 114 Pdr[2,14] + 114 Pdr[2,15] + 114 Pdr[2,16] + 114 Pdr[2,17]
   + 114 Pdr[2,18] + 114 Pdr[2,19] + 114 Pdr[2,20] + 114 Pdr[2,21]
   + 114 Pdr[2,22] + 114 Pdr[2,23]
Subject To
 Constr2[1]: - 0.95 Pch[0] + 1.052631578947368 Pdch[0] - Ee[0] + Ee[1] = 0
 Constr2[2]: - 0.95 Pch[1] + 1.052631578947368 Pdch[1] - Ee[1] + Ee[2] = 0
 Constr2[3]: - 0.95 Pch[2] + 1.052631578947368 Pdch[2] - Ee[2] + Ee[3] = 0
 Constr2[4]: - 0.95 Pch[3] + 1.052631578947368 Pdch[3] - Ee[3] + Ee[4] = 0
 Constr2[5]: - 0.95 Pch[4] + 1.052631578947368 Pdch[4] - Ee[4] + Ee[5] = 0
 Constr2[6]: - 0.95 Pch[5] + 1.052631578947368 Pdch[5] - Ee[5] + Ee[6] = 0
 Constr2[7]: - 0.95 Pch[6] + 1.052631578947368 Pdch[6] - Ee[6] + Ee[7] = 0
 Constr2[8]: - 0.95 Pch[7] + 1.052631578947368 Pdch[7] - Ee[7] + Ee[8] = 0
 Constr2[9]: - 0.95 Pch[8] + 1.052631578947368 Pdch[8] - Ee[8] + Ee[9] = 0
 Constr2[10]: - 0.95 Pch[9] + 1.052631578947368 Pdch[9] - Ee[9] + Ee[10]
   = 0
 Constr2[11]: - 0.95 Pch[10] + 1.052631578947368 Pdch[10] - Ee[10] + Ee[11]
   = 0
 Constr2[12]: - 0.95 Pch[11] + 1.052631578947368 Pdch[11] - Ee[11] + Ee[12]
   = 0
 Constr2[13]: - 0.95 Pch[12] + 1.052631578947368 Pdch[12] - Ee[12] + Ee[13]
   = 0
 Constr2[14]: - 0.95 Pch[13] + 1.052631578947368 Pdch[13] - Ee[13] + Ee[14]
   = 0
 Constr2[15]: - 0.95 Pch[14] + 1.052631578947368 Pdch[14] - Ee[14] + Ee[15]
   = 0
 Constr2[16]: - 0.95 Pch[15] + 1.052631578947368 Pdch[15] - Ee[15] + Ee[16]
   = 0
 Constr2[17]: - 0.95 Pch[16] + 1.052631578947368 Pdch[16] - Ee[16] + Ee[17]
   = 0
 Constr2[18]: - 0.95 Pch[17] + 1.052631578947368 Pdch[17] - Ee[17] + Ee[18]
   = 0
 Constr2[19]: - 0.95 Pch[18] + 1.052631578947368 Pdch[18] - Ee[18] + Ee[19]
   = 0
 Constr2[20]: - 0.95 Pch[19] + 1.052631578947368 Pdch[19] - Ee[19] + Ee[20]
   = 0
 Constr2[21]: - 0.95 Pch[20] + 1.052631578947368 Pdch[20] - Ee[20] + Ee[21]
   = 0
 Constr2[22]: - 0.95 Pch[21] + 1.052631578947368 Pdch[21] - Ee[21] + Ee[22]
   = 0
 Constr2[23]: - 0.95 Pch[22] + 1.052631578947368 Pdch[22] - Ee[22] + Ee[23]
   = 0
 Constr3[0]: Pd[0] - Pch[0] + Pdch[0] - Psh[0] + Pdr[0,0] + Pdr[1,0]
   + Pdr[2,0] = 21.0859
 Constr3[1]: Pd[1] - Pch[1] + Pdch[1] - Psh[1] + Pdr[0,1] + Pdr[1,1]
   + Pdr[2,1] = 20.2583
 Constr3[2]: Pd[2] - Pch[2] + Pdch[2] - Psh[2] + Pdr[0,2] + Pdr[1,2]
   + Pdr[2,2] = 20.1845
 Constr3[3]: Pd[3] - Pch[3] + Pdch[3] - Psh[3] + Pdr[0,3] + Pdr[1,3]
   + Pdr[2,3] = 20.8013
 Constr3[4]: Pd[4] - Pch[4] + Pdch[4] - Psh[4] + Pdr[0,4] + Pdr[1,4]
   + Pdr[2,4] = 24.4333
 Constr3[5]: Pd[5] - Pch[5] + Pdch[5] - Psh[5] + Pdr[0,5] + Pdr[1,5]
   + Pdr[2,5] = 23.938
 Constr3[6]: Pd[6] - Pch[6] + Pdch[6] - Psh[6] + Pdr[0,6] + Pdr[1,6]
   + Pdr[2,6] = 18.3289
 Constr3[7]: Pd[7] - Pch[7] + Pdch[7] - Psh[7] + Pdr[0,7] + Pdr[1,7]
   + Pdr[2,7] = 14.5295
 Constr3[8]: Pd[8] - Pch[8] + Pdch[8] - Psh[8] + Pdr[0,8] + Pdr[1,8]
   + Pdr[2,8] = 13.6442
 Constr3[9]: Pd[9] - Pch[9] + Pdch[9] - Psh[9] + Pdr[0,9] + Pdr[1,9]
   + Pdr[2,9] = 12.6478
 Constr3[10]: Pd[10] - Pch[10] + Pdch[10] - Psh[10] + Pdr[0,10] + Pdr[1,10]
   + Pdr[2,10] = 12.3142
 Constr3[11]: Pd[11] - Pch[11] + Pdch[11] - Psh[11] + Pdr[0,11] + Pdr[1,11]
   + Pdr[2,11] = 14.2714
 Constr3[12]: Pd[12] - Pch[12] + Pdch[12] - Psh[12] + Pdr[0,12] + Pdr[1,12]
   + Pdr[2,12] = 16.2536
 Constr3[13]: Pd[13] - Pch[13] + Pdch[13] - Psh[13] + Pdr[0,13] + Pdr[1,13]
   + Pdr[2,13] = 17.8611
 Constr3[14]: Pd[14] - Pch[14] + Pdch[14] - Psh[14] + Pdr[0,14] + Pdr[1,14]
   + Pdr[2,14] = 20.8171
 Constr3[15]: Pd[15] - Pch[15] + Pdch[15] - Psh[15] + Pdr[0,15] + Pdr[1,15]
   + Pdr[2,15] = 26.1573
 Constr3[16]: Pd[16] - Pch[16] + Pdch[16] - Psh[16] + Pdr[0,16] + Pdr[1,16]
   + Pdr[2,16] = 31.0859
 Constr3[17]: Pd[17] - Pch[17] + Pdch[17] - Psh[17] + Pdr[0,17] + Pdr[1,17]
   + Pdr[2,17] = 33.321
 Constr3[18]: Pd[18] - Pch[18] + Pdch[18] - Psh[18] + Pdr[0,18] + Pdr[1,18]
   + Pdr[2,18] = 48.2341
 Constr3[19]: Pd[19] - Pch[19] + Pdch[19] - Psh[19] + Pdr[0,19] + Pdr[1,19]
   + Pdr[2,19] = 50
 Constr3[20]: Pd[20] - Pch[20] + Pdch[20] - Psh[20] + Pdr[0,20] + Pdr[1,20]
   + Pdr[2,20] = 44.3437
 Constr3[21]: Pd[21] - Pch[21] + Pdch[21] - Psh[21] + Pdr[0,21] + Pdr[1,21]
   + Pdr[2,21] = 34.3384
 Constr3[22]: Pd[22] - Pch[22] + Pdch[22] - Psh[22] + Pdr[0,22] + Pdr[1,22]
   + Pdr[2,22] = 29.0459
 Constr3[23]: Pd[23] - Pch[23] + Pdch[23] - Psh[23] + Pdr[0,23] + Pdr[1,23]
   + Pdr[2,23] = 24.1434
 Constr4: - Psh[0] - Psh[1] - Psh[2] - Psh[3] - Psh[4] - Psh[5] - Psh[6]
   - Psh[7] - Psh[8] - Psh[9] - Psh[10] - Psh[11] - Psh[12] - Psh[13]
   - Psh[14] - Psh[15] - Psh[16] - Psh[17] - Psh[18] - Psh[19] - Psh[20]
   - Psh[21] - Psh[22] - Psh[23] + Pdr[0,0] + Pdr[0,1] + Pdr[0,2]
   + Pdr[0,3] + Pdr[0,4] + Pdr[0,5] + Pdr[0,6] + Pdr[0,7] + Pdr[0,8]
   + Pdr[0,9] + Pdr[0,10] + Pdr[0,11] + Pdr[0,12] + Pdr[0,13] + Pdr[0,14]
   + Pdr[0,15] + Pdr[0,16] + Pdr[0,17] + Pdr[0,18] + Pdr[0,19] + Pdr[0,20]
   + Pdr[0,21] + Pdr[0,22] + Pdr[0,23] + Pdr[1,0] + Pdr[1,1] + Pdr[1,2]
   + Pdr[1,3] + Pdr[1,4] + Pdr[1,5] + Pdr[1,6] + Pdr[1,7] + Pdr[1,8]
   + Pdr[1,9] + Pdr[1,10] + Pdr[1,11] + Pdr[1,12] + Pdr[1,13] + Pdr[1,14]
   + Pdr[1,15] + Pdr[1,16] + Pdr[1,17] + Pdr[1,18] + Pdr[1,19] + Pdr[1,20]
   + Pdr[1,21] + Pdr[1,22] + Pdr[1,23] + Pdr[2,0] + Pdr[2,1] + Pdr[2,2]
   + Pdr[2,3] + Pdr[2,4] + Pdr[2,5] + Pdr[2,6] + Pdr[2,7] + Pdr[2,8]
   + Pdr[2,9] + Pdr[2,10] + Pdr[2,11] + Pdr[2,12] + Pdr[2,13] + Pdr[2,14]
   + Pdr[2,15] + Pdr[2,16] + Pdr[2,17] + Pdr[2,18] + Pdr[2,19] + Pdr[2,20]
   + Pdr[2,21] + Pdr[2,22] + Pdr[2,23] = 0
 Constr5: Ee[0] - Ee[23] = 0
 Constr9[0]: Pd[0] <= 21.0859
 Constr9[1]: Pd[1] <= 20.2583
 Constr9[2]: Pd[2] <= 20.1845
 Constr9[3]: Pd[3] <= 20.8013
 Constr9[4]: Pd[4] <= 24.4333
 Constr9[5]: Pd[5] <= 29.1144
 Constr9[6]: Pd[6] <= 28.3289
 Constr9[7]: Pd[7] <= 28.6716
 Constr9[8]: Pd[8] <= 30.9647
 Constr9[9]: Pd[9] <= 31.9663
 Constr9[10]: Pd[10] <= 32.3142
 Constr9[11]: Pd[11] <= 33.5899
 Constr9[12]: Pd[12] <= 33.5741
 Constr9[13]: Pd[13] <= 32.0032
 Constr9[14]: Pd[14] <= 30.8171
 Constr9[15]: Pd[15] <= 31.3337
 Constr9[16]: Pd[16] <= 31.0859
 Constr9[17]: Pd[17] <= 33.321
 Constr9[18]: Pd[18] <= 48.2341
 Constr9[19]: Pd[19] <= 50
 Constr9[20]: Pd[20] <= 44.3437
 Constr9[21]: Pd[21] <= 34.3384
 Constr9[22]: Pd[22] <= 29.0459
 Constr9[23]: Pd[23] <= 24.1434
Bounds
 Pch[0] <= 20
 Pch[1] <= 20
 Pch[2] <= 20
 Pch[3] <= 20
 Pch[4] <= 20
 Pch[5] <= 20
 Pch[6] <= 20
 Pch[7] <= 20
 Pch[8] <= 20
 Pch[9] <= 20
 Pch[10] <= 20
 Pch[11] <= 20
 Pch[12] <= 20
 Pch[13] <= 20
 Pch[14] <= 20
 Pch[15] <= 20
 Pch[16] <= 20
 Pch[17] <= 20
 Pch[18] <= 20
 Pch[19] <= 20
 Pch[20] <= 20
 Pch[21] <= 20
 Pch[22] <= 20
 Pch[23] <= 20
 Pdch[0] <= 20
 Pdch[1] <= 20
 Pdch[2] <= 20
 Pdch[3] <= 20
 Pdch[4] <= 20
 Pdch[5] <= 20
 Pdch[6] <= 20
 Pdch[7] <= 20
 Pdch[8] <= 20
 Pdch[9] <= 20
 Pdch[10] <= 20
 Pdch[11] <= 20
 Pdch[12] <= 20
 Pdch[13] <= 20
 Pdch[14] <= 20
 Pdch[15] <= 20
 Pdch[16] <= 20
 Pdch[17] <= 20
 Pdch[18] <= 20
 Pdch[19] <= 20
 Pdch[20] <= 20
 Pdch[21] <= 20
 Pdch[22] <= 20
 Pdch[23] <= 20
 20 <= Ee[0] <= 80
 20 <= Ee[1] <= 80
 20 <= Ee[2] <= 80
 20 <= Ee[3] <= 80
 20 <= Ee[4] <= 80
 20 <= Ee[5] <= 80
 20 <= Ee[6] <= 80
 20 <= Ee[7] <= 80
 20 <= Ee[8] <= 80
 20 <= Ee[9] <= 80
 20 <= Ee[10] <= 80
 20 <= Ee[11] <= 80
 20 <= Ee[12] <= 80
 20 <= Ee[13] <= 80
 20 <= Ee[14] <= 80
 20 <= Ee[15] <= 80
 20 <= Ee[16] <= 80
 20 <= Ee[17] <= 80
 20 <= Ee[18] <= 80
 20 <= Ee[19] <= 80
 20 <= Ee[20] <= 80
 20 <= Ee[21] <= 80
 20 <= Ee[22] <= 80
 20 <= Ee[23] <= 80
 Psh[0] <= 100
 Psh[1] <= 100
 Psh[2] <= 100
 Psh[3] <= 100
 Psh[4] <= 100
 Psh[5] <= 100
 Psh[6] <= 100
 Psh[7] <= 100
 Psh[8] <= 100
 Psh[9] <= 100
 Psh[10] <= 100
 Psh[11] <= 100
 Psh[12] <= 100
 Psh[13] <= 100
 Psh[14] <= 100
 Psh[15] <= 100
 Psh[16] <= 100
 Psh[17] <= 100
 Psh[18] <= 100
 Psh[19] <= 100
 Psh[20] <= 100
 Psh[21] <= 100
 Psh[22] <= 100
 Psh[23] <= 100
 Pdr[0,0] <= 30
 Pdr[0,1] <= 30
 Pdr[0,2] <= 30
 Pdr[0,3] <= 30
 Pdr[0,4] <= 30
 Pdr[0,5] <= 30
 Pdr[0,6] <= 30
 Pdr[0,7] <= 30
 Pdr[0,8] <= 30
 Pdr[0,9] <= 30
 Pdr[0,10] <= 30
 Pdr[0,11] <= 30
 Pdr[0,12] <= 30
 Pdr[0,13] <= 30
 Pdr[0,14] <= 30
 Pdr[0,15] <= 30
 Pdr[0,16] <= 30
 Pdr[0,17] <= 30
 Pdr[0,18] <= 30
 Pdr[0,19] <= 30
 Pdr[0,20] <= 30
 Pdr[0,21] <= 30
 Pdr[0,22] <= 30
 Pdr[0,23] <= 30
 Pdr[1,0] <= 30
 Pdr[1,1] <= 30
 Pdr[1,2] <= 30
 Pdr[1,3] <= 30
 Pdr[1,4] <= 30
 Pdr[1,5] <= 30
 Pdr[1,6] <= 30
 Pdr[1,7] <= 30
 Pdr[1,8] <= 30
 Pdr[1,9] <= 30
 Pdr[1,10] <= 30
 Pdr[1,11] <= 30
 Pdr[1,12] <= 30
 Pdr[1,13] <= 30
 Pdr[1,14] <= 30
 Pdr[1,15] <= 30
 Pdr[1,16] <= 30
 Pdr[1,17] <= 30
 Pdr[1,18] <= 30
 Pdr[1,19] <= 30
 Pdr[1,20] <= 30
 Pdr[1,21] <= 30
 Pdr[1,22] <= 30
 Pdr[1,23] <= 30
 Pdr[2,0] <= 30
 Pdr[2,1] <= 30
 Pdr[2,2] <= 30
 Pdr[2,3] <= 30
 Pdr[2,4] <= 30
 Pdr[2,5] <= 30
 Pdr[2,6] <= 30
 Pdr[2,7] <= 30
 Pdr[2,8] <= 30
 Pdr[2,9] <= 30
 Pdr[2,10] <= 30
 Pdr[2,11] <= 30
 Pdr[2,12] <= 30
 Pdr[2,13] <= 30
 Pdr[2,14] <= 30
 Pdr[2,15] <= 30
 Pdr[2,16] <= 30
 Pdr[2,17] <= 30
 Pdr[2,18] <= 30
 Pdr[2,19] <= 30
 Pdr[2,20] <= 30
 Pdr[2,21] <= 30
 Pdr[2,22] <= 30
 Pdr[2,23] <= 30
End
